200,161
681,286
753,354
808,279
664,430
799,388
814,474
1071,406
1101,406
966,498
533,862
552,805
464,833
668,432
778,336
751,309
326,350
523,188
644,169
737,51
646,454
681,526
713,613
899,564
1194,572
